50

100 24 223
99 30 442
97 10 215
97 25 456
96 13 438
96 31 333
95 7 358
92 44 359
92 18 549
90 37 563
90 16 291
88 29 294
87 42 211
87 27 508
85 42 287
84 38 320
83 18 403
82 6 489
81 12 558
79 19 346
74 19 421
68 15 558
68 30 536
63 16 512
59 17 580
58 16 287
56 8 456
55 24 511
55 20 444
51 13 346
50 1 358
49 23 219
49 14 566
49 7 322
47 2 553
44 9 404
44 13 220
42 15 472
39 3 471
37 5 294
37 8 514
34 1 267
34 3 537
34 8 311
33 3 297
33 5 366
31 16 539
30 9 237
30 1 239
30 4 591
